9 141 19 24 113 163 81 182 103 105 114 11 27 46 132 181 20 55 150 94 147 130 162 25 86 112 54 177 116 91 140 47 1 143 29 99 34 118 50 191 18 135 144 195 36 61 117 4 123 52 59 92 43 154 3 121 122 187 70 42 76 53 90 38 72 14 153 62 15 151 157 183 106 68 171 136 83 40 146 78 180 12 178 87 164 23 26 179 119 137 80 33 129 174 0 155 199 125 49 168 161 93 31 104 96 166 139 16 89 88 138 97 169 48 69 152 172 184 21 192 110 102 57 127 28 190 196 198 107 128 35 175 158 74 66 131 6 170 60 111 73 197 194 100 189 120 22 41 109 167 10 148 185 37 65 7 51 45 145 124 108 126 133 156 193 79 75 160 134 71 56 30 77 98 44 165 32 67 13 186 64 173 159 85 95 188 142 63 149 58 84 17 5 39 82 2 176 115 101 8